/*********************************************
 * OPL 22.1.1.0 Data
 * Author: czj
 * Creation Date: Sep 23, 2024 at 7:42:52 PM
 *********************************************/

N = 64;
M = 13;
T = 360;
P = [
    1252,
    1262, 1262, 1262, 1262, 1262,
    1309,
    1310, 1310, 1310, 1310, 1310, 1310, 1310, 1310,
    1415, 1415, 1415, 1415,
    1420, 1420, 1420,
    273, 273, 273, 273, 273, 273, 273, 273,
    373, 373,
    455, 455, 455, 455, 455, 455,
    637, 637, 637, 637,
    641, 641,
    705, 705, 705, 705,
    857, 857, 857, 857,
    874, 874, 874, 874, 874, 874, 874, 874,
    890,
    940,
    947, 947
];
 